
Gurobi 11.0.1 (win64) logging started Wed May 15 14:42:37 2024

Set parameter LogFile to value "output/solver_log11.txt"
Gurobi Optimizer version 11.0.1 build v11.0.1rc0 (win64 - Windows 11.0 (22631.2))

CPU model: 11th Gen Intel(R) Core(TM) i7-1165G7 @ 2.80GHz, instruction set [SSE2|AVX|AVX2|AVX512]
Thread count: 4 physical cores, 8 logical processors, using up to 8 threads

Optimize a model with 2103 rows, 369 columns and 38543 nonzeros
Model fingerprint: 0xe83e4fa5
Variable types: 248 continuous, 121 integer (121 binary)
Coefficient statistics:
  Matrix range     [4e-01, 1e+05]
  Objective range  [1e+00, 1e+02]
  Bounds range     [1e+00, 1e+00]
  RHS range        [1e-02, 1e+05]

User MIP start produced solution with objective 39817 (0.00s)
User MIP start produced solution with objective 39817 (0.00s)
Loaded user MIP start with objective 39817

Presolve removed 95 rows and 98 columns
Presolve time: 0.04s
Presolved: 2008 rows, 271 columns, 37785 nonzeros
Variable types: 234 continuous, 37 integer (37 binary)

Root relaxation: objective 4.020631e+04, 534 iterations, 0.03 seconds (0.06 work units)

    Nodes    |    Current Node    |     Objective Bounds      |     Work
 Expl Unexpl |  Obj  Depth IntInf | Incumbent    BestBd   Gap | It/Node Time

     0     0 40206.3055    0   10 39816.9747 40206.3055  0.98%     -    0s
     0     0 39966.2958    0    8 39816.9747 39966.2958  0.38%     -    0s
     0     0 39834.3519    0    5 39816.9747 39834.3519  0.04%     -    0s
     0     0 39833.7579    0    2 39816.9747 39833.7579  0.04%     -    0s

Cutting planes:
  Gomory: 1
  Implied bound: 1
  MIR: 1
  Relax-and-lift: 1

Explored 1 nodes (748 simplex iterations) in 0.20 seconds (0.30 work units)
Thread count was 8 (of 8 available processors)

Solution count 2: 39817 39817 

Optimal solution found (tolerance 1.00e-04)
Best objective 3.981697471860e+04, best bound 3.981697471860e+04, gap 0.0000%
